10 5 
4 9   3 2   0 7   1 5   2 6   
1 10   0 2   4 10   3 8   2 7   
1 10   4 10   2 7   3 4   0 3   
2 6   1 3   0 1   4 2   3 2   
2 9   1 1   4 2   3 5   0 1   
4 6   0 8   1 9   3 2   2 2   
1 2   0 5   4 3   3 2   2 8   
3 2   2 10   4 5   1 1   0 5   
4 4   1 1   2 4   3 10   0 2   
2 6   0 8   4 4   3 8   1 1   
